c Random generated cnf formula, satisfiable: false
p cnf 10 50
9 -7 -2 0
4 3 -6 0
1 -7 -10 0
4 -2 -9 0
-5 -8 6 0
2 -8 -6 0
-2 5 1 0
9 -5 -2 0
-8 2 -1 0
-9 -7 -5 0
8 9 -1 0
9 -8 -6 0
2 -9 1 0
-2 -7 -5 0
9 -4 2 0
2 -3 -7 0
-9 -8 2 0
-9 7 4 0
-5 -7 10 0
3 5 10 0
1 2 -6 0
-10 -6 -5 0
1 3 -8 0
-10 -4 -7 0
-8 -3 10 0
-6 -7 -2 0
-1 -9 8 0
-7 8 -4 0
-3 4 -6 0
7 -3 5 0
3 -2 -1 0
-2 -5 9 0
-3 -2 8 0
2 1 9 0
1 5 8 0
1 -10 -4 0
6 -2 9 0
10 -2 -4 0
-7 -10 -3 0
2 -5 7 0
2 -10 -6 0
-10 8 -4 0
9 7 5 0
-6 -2 -1 0
10 7 -1 0
-8 -6 7 0
-6 1 -7 0
-2 -7 6 0
9 -7 2 0
9 -4 -7 0
